(declare-fun v4 () (_ BitVec 9))
(declare-fun a78 () (Array (_ BitVec 11) (_ BitVec 1)))
(assert
(let (($e34 (_ bv0 8)))
(let (($e42 (_ bv3 2)))
(let (($e603 (concat $e34 true )))
(let (($e606 (bvand        $e603         v4    )))
(let (($e949 (concat $e42  $e606)))
(let (($e950 (select a78   $e949)))
(let (($e951 (concat $e34 $e950)))
(let (($e952 (bvand $e606 $e951)))
              (ite        $e950   $e952 $e606)
                                                                                                                                                                                                                                                                                                                                                                                                                                                                                                                                                                                                                                                                                                                                                                                                                                                                                                                                                                                                                                                                                                                                                                                                                                                                                                                                                                                                                                                                                                                                                                                                                                                                                                                                                                                                                                                                                                                                                                                                                                                                                                                                                                                                                                                                                                                                                                                                                                                                                                                                                                                                                                                                                                                                                                                                                                                                                                                                                                                                                                                                                                                                                                                                                                                                                                                                                                                                                                                                                                                                                                                                                                                                                                                                                                                                                                                                                                                                                                                                                                                                                                                                                                                                                                                                                                                                                                                                       ))))                                                                                                                                                                                                                                                                                                                                                      )  )                                                                                                                                                                                                                                                                                                                                                                                                                                                                                                                                                         )       )                                 )
